;; produced by z3_gnatprove.drv ;;
(set-info :smt-lib-version 2.5)
(set-info :source |VC generated by SPARK 2014|)
(set-info :category industrial)
(set-info :status unknown)
;;; generated by SMT-LIB2 driver
;;; SMT-LIB2 driver: bit-vectors, common part
;;; SMT-LIB2: integer arithmetic
(declare-sort string 0)

(declare-datatypes () ((tuple0 (Tuple0))))
(declare-sort us_private 0)

(declare-fun private__bool_eq (us_private us_private) Bool)

(declare-const us_null_ext__ us_private)

(declare-sort us_type_of_heap 0)

(declare-datatypes ()
((us_type_of_heap__ref
 (us_type_of_heap__refqtmk (us_type_of_heap__content us_type_of_heap)))))
(declare-sort us_image 0)

(declare-datatypes () ((int__ref (int__refqtmk (int__content Int)))))
(declare-datatypes () ((bool__ref (bool__refqtmk (bool__content Bool)))))
(declare-datatypes ()
((us_fixed__ref (us_fixed__refqtmk (us_fixed__content Int)))))
(declare-datatypes () ((real__ref (real__refqtmk (real__content Real)))))
(declare-datatypes ()
((us_private__ref (us_private__refqtmk (us_private__content us_private)))))
(define-fun int__ref___projection ((a int__ref)) Int (int__content a))

(define-fun us_fixed__ref___projection ((a us_fixed__ref)) Int (us_fixed__content
                                                               a))

(define-fun bool__ref___projection ((a bool__ref)) Bool (bool__content a))

(define-fun real__ref___projection ((a real__ref)) Real (real__content a))

(define-fun us_private__ref___projection ((a us_private__ref)) us_private 
  (us_private__content a))

(declare-sort count_type 0)

(declare-fun count_typeqtint (count_type) Int)

;; count_type'axiom
  (assert
  (forall ((i count_type))
  (and (<= 0 (count_typeqtint i)) (<= (count_typeqtint i) 2147483647))))

(define-fun in_range ((x Int)) Bool (and (<= 0 x) (<= x 2147483647)))

(declare-fun attr__ATTRIBUTE_IMAGE (Int) us_image)

(declare-fun attr__ATTRIBUTE_VALUE__pre_check (us_image) Bool)

(declare-fun attr__ATTRIBUTE_VALUE (us_image) Int)

(declare-fun user_eq (count_type count_type) Bool)

(declare-const dummy count_type)

(declare-datatypes ()
((count_type__ref (count_type__refqtmk (count_type__content count_type)))))
(define-fun count_type__ref_count_type__content__projection ((a count_type__ref)) count_type 
  (count_type__content a))

(define-fun to_rep ((x count_type)) Int (count_typeqtint x))

(declare-fun of_rep (Int) count_type)

;; inversion_axiom
  (assert
  (forall ((x count_type))
  (! (= (of_rep (to_rep x)) x) :pattern ((to_rep x)) )))

;; range_axiom
  (assert
  (forall ((x count_type)) (! (in_range (to_rep x)) :pattern ((to_rep x)) )))

;; coerce_axiom
  (assert
  (forall ((x Int))
  (! (=> (in_range x) (= (to_rep (of_rep x)) x)) :pattern ((to_rep
                                                           (of_rep x))) )))

(declare-sort us_main_type 0)

(declare-fun us_main_eq (us_main_type us_main_type) Bool)

(declare-datatypes ()
((us_split_discrs
 (us_split_discrsqtmk
 (rec__sorted_lists__my_lists__list__capacity count_type)))))
(define-fun us_split_discrs_rec__sorted_lists__my_lists__list__capacity__projection ((a us_split_discrs)) count_type 
  (rec__sorted_lists__my_lists__list__capacity a))

(declare-datatypes ()
((us_split_discrs__ref
 (us_split_discrs__refqtmk (us_split_discrs__content us_split_discrs)))))
(define-fun us_split_discrs__ref___split_discrs__content__projection ((a us_split_discrs__ref)) us_split_discrs 
  (us_split_discrs__content a))

(declare-datatypes ()
((us_split_fields
 (us_split_fieldsqtmk (rec__sorted_lists__my_lists__list us_main_type)))))
(define-fun us_split_fields_rec__sorted_lists__my_lists__list__projection ((a us_split_fields)) us_main_type 
  (rec__sorted_lists__my_lists__list a))

(declare-datatypes ()
((us_split_fields__ref
 (us_split_fields__refqtmk (us_split_fields__content us_split_fields)))))
(define-fun us_split_fields__ref___split_fields__content__projection ((a us_split_fields__ref)) us_split_fields 
  (us_split_fields__content a))

(declare-datatypes ()
((us_rep
 (us_repqtmk
 (us_split_discrs1 us_split_discrs)(us_split_fields1 us_split_fields)))))
(define-fun us_rep___split_discrs__projection ((a us_rep)) us_split_discrs 
  (us_split_discrs1 a))

(define-fun us_rep___split_fields__projection ((a us_rep)) us_split_fields 
  (us_split_fields1 a))

(define-fun bool_eq ((a us_rep)
  (b us_rep)) Bool (ite (and
                        (= (to_rep
                           (rec__sorted_lists__my_lists__list__capacity
                           (us_split_discrs1 a))) (to_rep
                                                  (rec__sorted_lists__my_lists__list__capacity
                                                  (us_split_discrs1 b))))
                        (= (us_main_eq
                           (rec__sorted_lists__my_lists__list
                           (us_split_fields1 a))
                           (rec__sorted_lists__my_lists__list
                           (us_split_fields1 b))) true))
                   true false))

(define-fun in_range1 ((rec__sorted_lists__my_lists__list__capacity1 Int)
  (a us_split_discrs)) Bool (= rec__sorted_lists__my_lists__list__capacity1 
  (to_rep (rec__sorted_lists__my_lists__list__capacity a))))

(declare-const value__size Int)

(declare-const object__size Int)

(declare-const alignment Int)

;; value__size_axiom
  (assert (<= 0 value__size))

;; object__size_axiom
  (assert (<= 0 object__size))

;; alignment_axiom
  (assert (<= 0 alignment))

(declare-const sorted_lists__my_lists__list__capacity__first__bit Int)

(declare-const sorted_lists__my_lists__list__capacity__last__bit Int)

(declare-const sorted_lists__my_lists__list__capacity__position Int)

;; sorted_lists__my_lists__list__capacity__first__bit_axiom
  (assert (<= 0 sorted_lists__my_lists__list__capacity__first__bit))

;; sorted_lists__my_lists__list__capacity__last__bit_axiom
  (assert
  (< sorted_lists__my_lists__list__capacity__first__bit sorted_lists__my_lists__list__capacity__last__bit))

;; sorted_lists__my_lists__list__capacity__position_axiom
  (assert (<= 0 sorted_lists__my_lists__list__capacity__position))

(declare-fun user_eq1 (us_rep us_rep) Bool)

(declare-const dummy1 us_rep)

(declare-datatypes () ((list__ref (list__refqtmk (list__content us_rep)))))
(define-fun list__ref_list__content__projection ((a list__ref)) us_rep 
  (list__content a))

(declare-fun length (us_rep) Int)

(declare-fun length__function_guard (Int us_rep) Bool)

(declare-fun oeq (us_rep us_rep) Bool)

(declare-fun oeq__function_guard (Bool us_rep us_rep) Bool)

;; user_eq__def_axiom
  (assert
  (forall ((a us_rep) (b us_rep))
  (! (= (user_eq1 a b) (oeq a b)) :pattern ((user_eq1 a b)) )))

(define-fun dynamic_invariant ((temp___expr_247 Int)
  (temp___is_init_243 Bool) (temp___skip_constant_244 Bool)
  (temp___do_toplevel_245 Bool)
  (temp___do_typ_inv_246 Bool)) Bool (=>
                                     (or (= temp___is_init_243 true)
                                     (<= 0 2147483647)) (in_range
                                     temp___expr_247)))

;; length__post_axiom
  (assert
  (forall ((container us_rep))
  (! (let ((result (length container)))
     (and
     (<= result (to_rep
                (rec__sorted_lists__my_lists__list__capacity
                (us_split_discrs1 container))))
     (dynamic_invariant result true false true true))) :pattern ((length
                                                                 container)) )))

(declare-sort us_main_type1 0)

(declare-fun us_main_eq1 (us_main_type1 us_main_type1) Bool)

(declare-sort us_rep1 0)

(declare-fun bool_eq1 (us_rep1 us_rep1) Bool)

(declare-const value__size1 Int)

(declare-const object__size1 Int)

(declare-const alignment1 Int)

;; value__size_axiom
  (assert (<= 0 value__size1))

;; object__size_axiom
  (assert (<= 0 object__size1))

;; alignment_axiom
  (assert (<= 0 alignment1))

(declare-fun user_eq2 (us_rep1 us_rep1) Bool)

(declare-const dummy2 us_rep1)

(declare-datatypes ()
((sequence__ref (sequence__refqtmk (sequence__content us_rep1)))))
(define-fun sequence__ref_sequence__content__projection ((a sequence__ref)) us_rep1 
  (sequence__content a))

(declare-fun model1 (us_rep) us_rep1)

(declare-fun model__function_guard (us_rep1 us_rep) Bool)

(declare-fun length1 (us_rep1) Int)

(declare-fun length__function_guard1 (Int us_rep1) Bool)

(define-fun length2 ((x Int) (y Int)) Int (ite (<= x y) (+ (- y x) 1) 0))

(define-fun in_range2 ((x Int)) Bool (or (= x 0) (= x 1)))

(declare-fun attr__ATTRIBUTE_IMAGE1 (Bool) us_image)

(declare-fun attr__ATTRIBUTE_VALUE__pre_check1 (us_image) Bool)

(declare-fun attr__ATTRIBUTE_VALUE1 (us_image) Bool)

(define-fun last ((container us_rep1)) Int (+ 0 (length1 container)))

(declare-fun last__function_guard (Int us_rep1) Bool)

(declare-fun get (us_rep1 Int) Int)

(declare-fun get__function_guard (Int us_rep1 Int) Bool)

(define-fun oeq1 ((left us_rep1)
  (right us_rep1)) Bool (and (= (length1 left) (length1 right)) (ite 
                                                                (forall
                                                                ((n Int))
                                                                (=>
                                                                (and (<= 1 n)
                                                                (<= n 
                                                                (last left)))
                                                                (= (get left
                                                                   n) 
                                                                (get right n))))
                                                                true false)))

(declare-fun oeq__function_guard1 (Bool us_rep1 us_rep1) Bool)

;; user_eq__def_axiom
  (assert
  (forall ((a us_rep1) (b us_rep1))
  (! (= (user_eq2 a b) (oeq1 a b)) :pattern ((user_eq2 a b)) )))

(define-fun default_initial_assumption ((temp___expr_298 us_rep1)
  (temp___skip_top_level_299 Bool)) Bool (=>
                                         (not
                                         (= temp___skip_top_level_299 true))
                                         (= (length1 temp___expr_298) 0)))

;; model__post_axiom
  (assert
  (forall ((container us_rep))
  (! (= (length1 (model1 container)) (length container)) :pattern ((model1
                                                                   container)) )))

(declare-const target__split_discrs us_split_discrs)

(declare-const attr__ATTRIBUTE_ADDRESS Int)

(declare-const source__split_discrs us_split_discrs)

(declare-const attr__ATTRIBUTE_ADDRESS1 Int)

(declare-sort tcount_typeB 0)

(declare-fun tcount_typeBqtint (tcount_typeB) Int)

;; tcount_typeB'axiom
  (assert
  (forall ((i tcount_typeB))
  (and (<= (- 2147483648) (tcount_typeBqtint i))
  (<= (tcount_typeBqtint i) 2147483647))))

(define-fun in_range3 ((x Int)) Bool (and (<= (- 2147483648) x)
                                     (<= x 2147483647)))

(declare-fun attr__ATTRIBUTE_IMAGE2 (Int) us_image)

(declare-fun attr__ATTRIBUTE_VALUE__pre_check2 (us_image) Bool)

(declare-fun attr__ATTRIBUTE_VALUE2 (us_image) Int)

(declare-fun user_eq3 (tcount_typeB tcount_typeB) Bool)

(declare-const dummy3 tcount_typeB)

(declare-datatypes ()
((tcount_typeB__ref
 (tcount_typeB__refqtmk (tcount_typeB__content tcount_typeB)))))
(define-fun tcount_typeB__ref_tcount_typeB__content__projection ((a tcount_typeB__ref)) tcount_typeB 
  (tcount_typeB__content a))

;; oeq__post_axiom
  (assert
  (forall ((left us_rep) (right us_rep))
  (! (= (= (oeq left right) true)
     (= (oeq1 (model1 left) (model1 right)) true)) :pattern ((oeq left right)) )))

(declare-sort extended_index 0)

(declare-fun extended_indexqtint (extended_index) Int)

;; extended_index'axiom
  (assert
  (forall ((i extended_index))
  (and (<= 0 (extended_indexqtint i))
  (<= (extended_indexqtint i) 2147483647))))

(define-fun in_range4 ((x Int)) Bool (and (<= 0 x) (<= x 2147483647)))

(declare-fun attr__ATTRIBUTE_IMAGE3 (Int) us_image)

(declare-fun attr__ATTRIBUTE_VALUE__pre_check3 (us_image) Bool)

(declare-fun attr__ATTRIBUTE_VALUE3 (us_image) Int)

(declare-fun user_eq4 (extended_index extended_index) Bool)

(declare-const dummy4 extended_index)

(declare-datatypes ()
((extended_index__ref
 (extended_index__refqtmk (extended_index__content extended_index)))))
(define-fun extended_index__ref_extended_index__content__projection ((a extended_index__ref)) extended_index 
  (extended_index__content a))

(define-fun dynamic_invariant1 ((temp___expr_290 Int)
  (temp___is_init_286 Bool) (temp___skip_constant_287 Bool)
  (temp___do_toplevel_288 Bool)
  (temp___do_typ_inv_289 Bool)) Bool (=>
                                     (or (= temp___is_init_286 true)
                                     (<= 0 2147483647)) (in_range4
                                     temp___expr_290)))

;; length__post_axiom
  (assert
  (forall ((container us_rep1))
  (! (let ((result (length1 container)))
     (and (<= (+ 0 result) 2147483647) (dynamic_invariant result true false
     true true))) :pattern ((length1 container)) )))

(declare-sort element_type 0)

(declare-fun element_typeqtint (element_type) Int)

;; element_type'axiom
  (assert
  (forall ((i element_type))
  (and (<= 1 (element_typeqtint i)) (<= (element_typeqtint i) 100))))

(define-fun in_range5 ((x Int)) Bool (and (<= 1 x) (<= x 100)))

(declare-fun attr__ATTRIBUTE_IMAGE4 (Int) us_image)

(declare-fun attr__ATTRIBUTE_VALUE__pre_check4 (us_image) Bool)

(declare-fun attr__ATTRIBUTE_VALUE4 (us_image) Int)

(declare-fun user_eq5 (element_type element_type) Bool)

(declare-const dummy5 element_type)

(declare-datatypes ()
((element_type__ref
 (element_type__refqtmk (element_type__content element_type)))))
(define-fun element_type__ref_element_type__content__3__projection ((a element_type__ref)) element_type 
  (element_type__content a))

(define-fun dynamic_invariant2 ((temp___expr_283 Int)
  (temp___is_init_279 Bool) (temp___skip_constant_280 Bool)
  (temp___do_toplevel_281 Bool)
  (temp___do_typ_inv_282 Bool)) Bool (=>
                                     (or (= temp___is_init_279 true)
                                     (<= 1 100)) (in_range5 temp___expr_283)))

;; get__post_axiom
  (assert
  (forall ((container us_rep1))
  (forall ((position Int))
  (! (=>
     (and (dynamic_invariant1 position true true true true)
     (and (<= 1 position) (<= position (last container))))
     (dynamic_invariant2 (get container position) true false true true)) :pattern (
  (get container position)) ))))

(declare-const target__split_fields us_main_type)

(declare-const source__split_fields us_main_type)

;; Assume
  (assert true)

;; Assume
  (assert true)

(define-fun o () Int (length
                     (us_repqtmk target__split_discrs
                     (us_split_fieldsqtmk target__split_fields))))

;; H
  (assert (dynamic_invariant o true false true true))

;; H
  (assert
  (<= o (to_rep
        (rec__sorted_lists__my_lists__list__capacity target__split_discrs))))

(declare-const o1 Int)

;; Ensures
  (assert
  (= (to_rep
     (rec__sorted_lists__my_lists__list__capacity target__split_discrs)) 
  o1))

(define-fun o2 () Int (- o1 o))

(assert
;; defqtvc
 ;; File "a-cfdlli.ads", line 1574, characters 0-0
  (not (in_range3 o2)))
(check-sat)
